(set-logic QF_S)
(declare-fun var_0xINPUT_83127 () String)
(assert (and (= (len var_0xINPUT_83127) 0) (= (len var_0xINPUT_83127) 0) (not (= var_0xINPUT_83127 "Example:")) (not (= var_0xINPUT_83127 "6JX7G3VKFq"))))
(check-sat var_0xINPUT_83127)